BEGIN IONS
IDENTIFIER=MassSpecID0000001
SMILES=CC(=O)N[C@@H](CC1=CC=CC=C1)C2=CC(=CC(=O)O2)OC
INCHIKEY=VFMQMACUYWGDOJ
FORMULA:C16H17NO4
PRECURSOR_FORMULA=C16H18NO4
PARENT_MASS=287.115224
PRECURSOR_MZ=288.1225
ADDUCT=[M+H]+
INSTRUMENT_TYPE=Orbitrap
COLLISION_ENERGY=30.0
91.0542 0.24524524524524524 
125.0233 1.0 
154.0499 0.08008008008008008 
155.0577 0.35535535535535534 
185.0961 0.34934934934934936 
200.107 0.04504504504504504 
229.0859 0.14214214214214213 
246.1125 0.7347347347347347 
END IONS

BEGIN IONS
IDENTIFIER=MassSpecID0000002
SMILES=CC(=O)N[C@@H](CC1=CC=CC=C1)C2=CC(=CC(=O)O2)OC
INCHIKEY=VFMQMACUYWGDOJ
FORMULA=C16H17NO4
PRECURSOR_FORMULA=C16H18NO4
PARENT_MASS=287.115224
PRECURSOR_MZ=288.1225
ADDUCT=[M+H]+
INSTRUMENT_TYPE=Orbitrap
COLLISION_ENERGY=20.0
91.0542 0.0990990990990991 
125.0233 0.28128128128128127 
155.0577 0.04004004004004004 
185.0961 0.06506506506506507 
229.0859 0.07407407407407407 
246.1125 1.0 
END IONS

BEGIN IONS
IDENTIFIER=MassSpecID0000003
SMILES=CC(=O)N[C@@H](CC1=CC=CC=C1)C2=CC(=CC(=O)O2)OC
INCHIKEY=VFMQMACUYWGDOJ
FORMULA=C16H17NO4
PRECURSOR_FORMULA=C16H18NO4
PARENT_MASS=287.115224
PRECURSOR_MZ=288.1225
ADDUCT=[M+H]+
INSTRUMENT_TYPE=Orbitrap
COLLISION_ENERGY
69.0343 0.03403403403403404 
91.0542 0.31431431431431434 
125.0233 1.0 
127.039 0.03803803803803804 
153.0699 0.04104104104104104 
154.0499 0.08608608608608609 
155.0577 0.7087087087087087 
170.0726 0.05905905905905906 
185.0961 0.3123123123123123 
200.107 0.07207207207207207 
229.0859 0.08008008008008008 
246.1125 0.12612612612612611 
END IONS

BEGIN IONS
IDENTIFIER=MassSpecID0000004
SMILES=CC(=O)N[C@@H](CC1=CC=CC=C1)C2=CC(=CC(=O)O2)OC
INCHIKEY=VFMQMACUYWGDOJ
FORMULA=C16H17NO4
PRECURSOR_FORMULA=C16H18NO4
PARENT_MASS=287.115224
PRECURSOR_MZ=288.1225
ADDUCT=
INSTRUMENT_TYPE=Orbitrap
COLLISION_ENERGY=55.0
69.0343 0.17917917917917917 
91.0542 0.47347347347347346 
110.06 0.03803803803803804 
111.0441 0.05005005005005005 
112.0393 0.037037037037037035 
120.0808 0.07707707707707707 
125.0233 0.8708708708708709 
126.055 0.03303303303303303 
127.039 0.0940940940940941 
131.0491 0.04004004004004004 
140.0342 0.18618618618618618 
141.0699 0.035035035035035036 
153.0699 0.11011011011011011 
154.0499 0.04804804804804805 
155.0577 1.0 
168.0808 0.04504504504504504 
169.0648 0.031031031031031032 
170.0726 0.12312312312312312 
185.0961 0.09509509509509509 
200.107 0.05405405405405406 
END IONS

BEGIN IONS
IDENTIFIER=MassSpecID0000005
SMILES=CC(=O)N[C@@H](CC1=CC=CC=C1)C2=CC(=CC(=O)O2)OC
INCHIKEY=VFMQMACUYWGDOJ
FORMULA=C16H17NO4
PRECURSOR_FORMULA=C16H18NO4
PARENT_MASS=287.115224
PRECURSOR_MZ=288.1225
ADDUCT=[M+H]+
INSTRUMENT_TYPE=Orbitrap
COLLISION_ENERGY=10.0
91.0542 0.07807807807807808 
125.0233 0.1841841841841842 
185.0961 0.035035035035035036 
229.0859 0.06506506506506507 
246.1125 1.0 
288.123 0.06306306306306306 
END IONS

BEGIN IONS
IDENTIFIER=MassSpecID0000006
SMILES=CC(=O)N[C@@H](CC1=CC=CC=C1)C2=CC(=CC(=O)O2)OC
INCHIKEY=VFMQMACUYWGDOJ
FORMULA=C16H17NO4
PRECURSOR_FORMULA=C16H18NO4
PARENT_MASS=287.115224
PRECURSOR_MZ=288.1225
ADDUCT=[M+H]+
INSTRUMENT_TYPE=Orbitrap
COLLISION_ENERGY=55.0
69.0343 0.18066558 
91.0542 0.47400827 
110.06 0.03917105 
111.0441 0.05169455 
112.0393 0.03831296 
120.0808 0.07837253 
125.0233 0.87145695 
126.055 0.03486654 
127.039 0.09549556000000001 
131.0491 0.04186115 
140.0342 0.18763684000000003 
141.0699 0.03631806 
153.0699 0.11185107999999999 
154.0499 0.04993832 
155.0577 1.0 
168.0808 0.04605732 
169.0648 0.03243932 
170.0726 0.12461511 
185.0961 0.09624268000000001 
200.107 0.05578042 
END IONS
