NAME: MassSpecID0000001
PRECURSORMZ: 288.1225
PRECURSORTYPE: [M+H]+
IONMODE: Positive
FORMULA: C16H17NO4
SMILES: CC(=O)N[C@@H](CC1=CC=CC=C1)C2=CC(=CC(=O)O2)OC
INCHIKEY: VFMQMACUYWGDOJ-UHFFFAOYSA-N
INSTRUMENTTYPE: Orbitrap
COLLISIONENERGY: 30.0
ONTOLOGY: Kavalactones
SPLASH: splash10-004j-1940000000-f128afe3469a523d4694
COMMENT: DB#=MassSpecID0000001; origin=MassSpec
Num Peaks: 8
91.0542	245
125.0233	1000
154.0499	80
155.0577	355
185.0961	349
200.107	45
229.0859	142
246.1125	735

NAME: MassSpecID0000002
PRECURSORMZ: 288.1225
PRECURSORTYPE: [M+H]+
IONMODE: Positive
FORMULA: C16H17NO4
SMILES: CC(=O)N[C@@H](CC1=CC=CC=C1)C2=CC(=CC(=O)O2)OC
INCHIKEY: VFMQMACUYWGDOJ-UHFFFAOYSA-N
INSTRUMENTTYPE: Orbitrap
COLLISIONENERGY: 20.0
ONTOLOGY: Kavalactones
SPLASH: splash10-0002-0390000000-39f6e23320f2e46525ad
COMMENT: DB#=MassSpecID0000002; origin=MassSpec
Num Peaks: 6
91.0542	99
125.0233	281
155.0577	40
185.0961	65
229.0859	74
246.1125	1000

NAME: MassSpecID0000003
PRECURSORMZ: 288.1225
PRECURSORTYPE: [M+H]+
IONMODE: Positive
FORMULA: C16H17NO4
SMILES: CC(=O)N[C@@H](CC1=CC=CC=C1)C2=CC(=CC(=O)O2)OC
INCHIKEY: VFMQMACUYWGDOJ-UHFFFAOYSA-N
INSTRUMENTTYPE: Orbitrap
COLLISIONENERGY: 40.0
ONTOLOGY: Kavalactones
SPLASH: splash10-056r-1910000000-a809cef6f48dbbfc79d0
COMMENT: DB#=MassSpecID0000003; origin=MassSpec
Num Peaks: 12
69.0343	34
91.0542	314
125.0233	1000
127.039	38
153.0699	41
154.0499	86
155.0577	709
170.0726	59
185.0961	312
200.107	72
229.0859	80
246.1125	126

NAME: MassSpecID0000004
PRECURSORMZ: 288.1225
PRECURSORTYPE: [M+H]+
IONMODE: Positive
FORMULA: C16H17NO4
SMILES: CC(=O)N[C@@H](CC1=CC=CC=C1)C2=CC(=CC(=O)O2)OC
INCHIKEY: VFMQMACUYWGDOJ-UHFFFAOYSA-N
INSTRUMENTTYPE: Orbitrap
COLLISIONENERGY: 55.0
ONTOLOGY: Kavalactones
SPLASH: splash10-0a6u-2900000000-4e2dfe4dfd5231c43084
COMMENT: DB#=MassSpecID0000004; origin=MassSpec
Num Peaks: 20
69.0343	179
91.0542	473
110.06	38
111.0441	50
112.0393	37
120.0808	77
125.0233	871
126.055	33
127.039	94
131.0491	40
140.0342	186
141.0699	35
153.0699	110
154.0499	48
155.0577	1000
168.0808	45
169.0648	31
170.0726	123
185.0961	95
200.107	54

NAME: MassSpecID0000005
PRECURSORMZ: 288.1225
PRECURSORTYPE: [M+H]+
IONMODE: Positive
FORMULA: C16H17NO4
SMILES: CC(=O)N[C@@H](CC1=CC=CC=C1)C2=CC(=CC(=O)O2)OC
INCHIKEY: VFMQMACUYWGDOJ-UHFFFAOYSA-N
INSTRUMENTTYPE: Orbitrap
COLLISIONENERGY: 10.0
ONTOLOGY: Kavalactones
SPLASH: splash10-0002-0190000000-79e8cad4c85ed8bb36ab
COMMENT: DB#=MassSpecID0000005; origin=MassSpec
Num Peaks: 6
91.0542	78
125.0233	184
185.0961	35
229.0859	65
246.1125	1000
288.123	63